(set-logic QF_S)
(declare-fun var0 () Int)
(declare-fun var1 () Int)
(declare-fun var2 () String)
(declare-fun var3 () String)
(declare-fun var4 () Int)
(declare-fun var5 () Int)
(declare-fun var6 () String)
(declare-fun var7 () String)
(assert (> var0 var1))
(assert (>= (str.len var2) (str.to.int (str.substr var3 var4 var5))))
(assert (< var5 var0))
(assert (not (str.contains var6 var7)))
(check-sat)